\ Model QCP
\ LP format - for model browsing. Use MPS format to capture full model detail.
Minimize
  z + 4 y
Subject To
 Cut_0: z + [ 0.2842535787321063 y ^2 ] >= 3488.511247443763
 Cut_1: z + [ ] >= 2476
Bounds
 2476 <= z <= 3257
 40.65710270051225 <= y <= 59.6824932455071
End
